# Formato: id_origem id_destino distancia

0 1 0.5
0 2 1.0
0 3 1.0
0 4 0.9
0 5 2.2
0 6 2.5
0 7 2.4
0 8 3.7
0 9 3.1
0 10 3.2
0 11 2.2
0 12 1.8
0 13 2.2
0 14 2.7
0 15 1.8
0 16 1.0
0 17 0.7
0 18 4.2
0 19 3.8
0 20 3.7
0 21 3.5
0 22 2.0
0 23 3.5
0 24 5.4
1 2 1.2
1 3 0.8
1 4 0.8
1 5 2.3
1 6 2.4
1 7 2.5
1 8 3.6
1 9 3.1
1 10 3.2
1 11 2.2
1 12 1.8
1 13 2.2
1 14 2.6
1 15 1.8
1 16 0.9
1 17 0.6
1 18 4.1
1 19 3.8
1 20 3.7
1 21 3.5
1 22 2.3
1 23 3.5
1 24 5.3
2 3 0.3
2 4 0.3
2 5 1.5
2 6 1.8
2 7 1.7
2 8 3.0
2 9 3.3
2 10 2.8
2 11 2.2
2 12 1.9
2 13 2.2
2 14 2.1
2 15 2.4
2 16 1.2
2 17 0.5
2 18 4.3
2 19 4.8
2 20 4.7
2 21 4.5
2 22 2.7
2 23 4.0
2 24 4.7
3 4 0.4
3 5 1.3
3 6 2.1
3 7 1.5
3 8 2.8
3 9 3.1
3 10 2.7
3 11 2.6
3 12 2.0
3 13 2.6
3 14 2.2
3 15 2.7
3 16 1.3
3 17 0.6
3 18 4.4
3 19 4.6
3 20 4.5
3 21 4.3
3 22 3.0
3 23 3.8
3 24 4.8
4 5 1.3
4 6 1.5
4 7 1.5
4 8 2.8
4 9 3.1
4 10 2.6
4 11 2.0
4 12 1.8
4 13 2.0
4 14 1.8
4 15 2.7
4 16 0.9
4 17 0.6
4 18 4.1
4 19 3.8
4 20 3.7
4 21 3.5
4 22 3.0
4 23 3.7
4 24 4.4
5 6 1.1
5 7 1.3
5 8 1.9
5 9 2.3
5 10 1.8
5 11 1.5
5 12 1.3
5 13 1.5
5 14 1.3
5 15 3.7
5 16 1.1
5 17 1.6
5 18 5.0
5 19 3.8
5 20 3.7
5 21 3.5
5 22 3.9
5 23 2.9
5 24 4.0
6 7 2.0
6 8 2.7
6 9 1.6
6 10 1.2
6 11 0.9
6 12 1.7
6 13 0.9
6 14 0.7
6 15 4.0
6 16 1.4
6 17 1.9
6 18 4.3
6 19 3.1
6 20 3.0
6 21 2.8
6 22 5.3
6 23 2.3
6 24 3.3
7 8 1.0
7 9 3.5
7 10 3.0
7 11 2.9
7 12 2.5
7 13 2.9
7 14 3.1
7 15 4.0
7 16 1.6
7 17 1.9
7 18 6.2
7 19 4.9
7 20 4.8
7 21 4.6
7 22 4.3
7 23 4.1
7 24 5.1
8 9 3.8
8 10 3.4
8 11 3.3
8 12 2.9
8 13 3.3
8 14 3.4
8 15 4.6
8 16 2.0
8 17 2.5
8 18 6.5
8 19 5.3
8 20 5.2
8 21 5.0
8 22 4.9
8 23 4.5
8 24 4.7
9 10 1.0
9 11 0.4
9 12 2.6
9 13 0.4
9 14 0.5
9 15 5.8
9 16 1.8
9 17 2.3
9 18 4.2
9 19 3.0
9 20 2.9
9 21 2.7
9 22 5.1
9 23 2.1
9 24 3.5
10 11 1.1
10 12 1.9
10 13 1.1
10 14 1.2
10 15 5.1
10 16 2.1
10 17 2.6
10 18 3.5
10 19 2.2
10 20 2.1
10 21 1.9
10 22 4.4
10 23 1.1
10 24 3.1
11 12 0.6
11 13 1.0
11 14 0.2
11 15 3.7
11 16 1.5
11 17 1.9
11 18 3.6
11 19 2.4
11 20 2.3
11 21 2.1
11 22 4.6
11 23 2.2
11 24 3.5
12 13 1.6
12 14 1.7
12 15 3.3
12 16 1.1
12 17 1.8
12 18 3.2
12 19 2.0
12 20 1.9
12 21 1.7
12 22 4.2
12 23 1.7
12 24 4.8
13 14 0.2
13 15 3.7
13 16 1.5
13 17 1.9
13 18 3.6
13 19 2.4
13 20 2.3
13 21 2.1
13 22 4.6
13 23 2.2
13 24 3.5
14 15 3.8
14 16 1.3
14 17 1.7
14 18 4.2
14 19 3.0
14 20 2.9
14 21 2.7
14 22 5.2
14 23 2.2
14 24 3.4
15 16 3.0
15 17 2.4
15 18 4.2
15 19 6.1
15 20 6.0
15 21 5.8
15 22 1.6
15 23 5.8
15 24 12.0
16 17 0.8
16 18 4.0
16 19 3.3
16 20 3.2
16 21 3.0
16 22 3.0
16 23 2.9
16 24 4.3
17 18 3.9
17 19 3.6
17 20 3.5
17 21 3.3
17 22 3.0
17 23 3.2
17 24 4.7
18 19 3.0
18 20 3.0
18 21 2.9
18 22 2.4
18 23 4.5
18 24 7.6
19 20 0.4
19 21 0.9
19 22 4.9
19 23 2.4
19 24 9.6
20 21 0.4
20 22 4.6
20 23 2.0
20 24 5.7
21 22 5.2
21 23 2.2
21 24 9.9
22 23 4.7
22 24 7.8
23 24 4.3
